64 61 69 65 75 66 62 56 55 51 50 49 48 47 46 54 44 52 73 67 63 53 45 28 29 30 19 7 2 1 6 0 5 11 4 12 17 13 14 15 16 24 18 25 26 27 31 32 20 33 34 35 21 36 37 38 22 8 9 3 10 23 43 42 41 40 39 58 59 60 72 71 57 70 78 79 82 83 84 85 89 90 94 95 96 103 102 110 109 115 119 116 121 128 127 130 126 118 114 108 107 106 101 105 112 125 124 123 113 117 120 129 122 111 104 100 99 97 88 92 98 93 91 87 86 76 74 77 80 81 68 